letting n =  10
letting blocks =  [[1, 7], [1, 10], [2, 9], [2, 10], [3, 2], [3, 5], [4, 1], [4, 3], [4, 6], [4, 7], [5, 6], [5, 7], [5, 9], [6, 7], [7, 4], [7, 7], [8, 2], [8, 6], [9, 8], [9, 9], [10, 3], [10, 8]]
